param n := 120;
param c := 1000;
param : V : p w :=
   0	  74	 366
   1	  55	 268
   2	  46	 366
   3	  70	 430
   4	  88	 263
   5	  35	 307
   6	  42	 414
   7	  36	 287
   8	  55	 299
   9	  21	 495
  10	  58	 251
  11	   5	 254
  12	  24	 474
  13	  53	 252
  14	   1	 274
  15	  78	 370
  16	  78	 269
  17	  14	 361
  18	  79	 473
  19	  69	 252
  20	  40	 275
  21	  66	 472
  22	  92	 259
  23	  91	 269
  24	  60	 444
  25	  82	 258
  26	  55	 298
  27	  92	 439
  28	  47	 273
  29	  32	 288
  30	  35	 445
  31	   7	 272
  32	  67	 283
  33	  75	 419
  34	  15	 261
  35	  53	 320
  36	  58	 363
  37	  21	 271
  38	  20	 366
  39	  39	 355
  40	  41	 273
  41	   5	 372
  42	  63	 466
  43	  51	 262
  44	  73	 272
  45	  22	 357
  46	  21	 292
  47	  68	 351
  48	  58	 395
  49	  63	 255
  50	  23	 350
  51	  88	 350
  52	  82	 303
  53	  86	 347
  54	  57	 450
  55	  51	 252
  56	  71	 298
  57	  66	 410
  58	  28	 275
  59	   2	 315
  60	  20	 407
  61	  61	 260
  62	  82	 333
  63	  96	 366
  64	  34	 271
  65	  26	 363
  66	  81	 350
  67	  54	 294
  68	  68	 356
  69	  47	 480
  70	 100	 253
  71	  77	 267
  72	  55	 446
  73	  36	 259
  74	  14	 295
  75	  33	 376
  76	  76	 267
  77	  11	 357
  78	  61	 366
  79	  92	 282
  80	 100	 352
  81	   7	 478
  82	  22	 256
  83	  54	 266
  84	   4	 420
  85	  39	 251
  86	  33	 329
  87	  16	 434
  88	  39	 252
  89	  41	 314
  90	  87	 470
  91	 100	 254
  92	  85	 276
  93	  77	 497
  94	  15	 250
  95	  78	 253
  96	  46	 497
  97	  56	 250
  98	  27	 253
  99	  83	 445
 100	  22	 254
 101	  36	 301
 102	 100	 412
 103	   9	 263
 104	  53	 325
 105	  18	 400
 106	   1	 298
 107	  80	 302
 108	  66	 362
 109	  17	 282
 110	  29	 356
 111	  64	 405
 112	  30	 259
 113	  19	 336
 114	  87	 397
 115	   3	 290
 116	  77	 313
 117	  17	 485
 118	  53	 253
 119	  88	 262
;

set E :=
   0	  26
   0	  44
   0	  52
   0	  58
   0	  62
   0	  71
   0	  72
   0	  73
   0	  76
   0	  84
   0	 107
   0	 118
   0	 119
   1	  33
   1	  36
   1	  48
   1	  50
   1	  60
   1	  65
   1	  69
   1	  95
   1	 100
   1	 105
   2	   3
   2	  12
   2	  13
   2	  27
   2	  43
   2	  48
   2	  82
   2	  88
   2	  90
   2	 101
   3	   6
   3	  17
   3	  24
   3	  50
   3	  56
   3	  63
   3	  74
   3	  80
   3	  86
   3	 118
   4	   6
   4	   9
   4	  22
   4	  30
   4	  33
   4	  51
   4	  76
   4	  83
   4	  89
   4	  94
   4	 103
   4	 117
   4	 119
   5	   9
   5	  19
   5	  48
   5	  49
   5	  69
   5	  78
   5	  85
   5	  95
   5	 107
   5	 113
   5	 114
   6	   9
   6	  23
   6	  39
   6	  49
   6	  54
   6	  64
   6	  69
   6	  74
   6	  76
   6	  91
   6	 104
   6	 106
   6	 110
   6	 112
   6	 117
   7	  11
   7	  14
   7	  28
   7	  31
   7	  38
   7	  40
   7	  45
   7	  47
   7	  52
   7	  53
   7	  58
   7	  61
   7	  63
   7	  67
   7	 108
   8	  24
   8	  28
   8	  29
   8	  38
   8	  44
   8	  54
   8	  55
   8	  71
   8	  75
   8	  79
   8	  90
   8	 104
   8	 109
   8	 111
   9	  13
   9	  19
   9	  31
   9	  36
   9	  37
   9	  47
   9	  51
   9	  52
   9	  66
   9	  70
   9	  71
   9	  76
   9	  83
   9	  88
   9	  98
   9	 104
   9	 119
  10	  17
  10	  28
  10	  41
  10	  53
  10	  56
  10	  62
  10	  70
  10	  81
  10	  92
  10	  96
  10	 114
  11	  13
  11	  15
  11	  39
  11	  41
  11	  44
  11	  49
  11	  55
  11	  65
  11	  74
  11	  79
  11	  81
  11	  82
  11	  88
  12	  30
  12	  34
  12	  47
  12	  48
  12	  54
  12	  58
  12	  71
  12	  92
  12	  98
  12	  99
  12	 112
  12	 115
  12	 118
  13	  16
  13	  18
  13	  19
  13	  38
  13	  39
  13	  51
  13	  52
  13	  54
  13	  57
  13	  68
  13	  73
  13	  78
  13	  79
  13	  81
  13	 107
  13	 112
  13	 118
  14	  17
  14	  44
  14	  55
  14	  69
  14	  70
  14	  73
  14	  84
  14	  89
  14	  94
  14	 101
  14	 102
  14	 106
  14	 110
  14	 118
  15	  20
  15	  23
  15	  25
  15	  42
  15	  56
  15	  59
  15	  67
  15	  88
  15	  97
  16	  18
  16	  29
  16	  41
  16	  44
  16	  46
  16	  65
  16	  70
  16	  74
  16	  82
  16	  85
  16	  87
  16	 104
  16	 116
  16	 118
  17	  27
  17	  43
  17	  48
  17	  67
  17	  76
  17	  77
  17	 116
  18	  48
  18	  49
  18	  59
  18	  64
  18	  72
  18	  85
  18	 111
  19	  25
  19	  31
  19	  35
  19	  56
  19	  58
  19	  68
  19	  71
  19	  77
  19	  78
  19	  85
  19	  93
  19	  98
  19	 100
  19	 117
  19	 118
  20	  21
  20	  22
  20	  24
  20	  25
  20	  26
  20	  30
  20	  33
  20	  35
  20	  37
  20	  43
  20	  51
  20	  72
  20	  83
  20	  87
  20	  89
  20	  91
  20	 107
  20	 115
  20	 117
  21	  51
  21	  52
  21	  70
  21	  87
  21	  94
  21	  96
  21	  97
  21	 113
  21	 119
  22	  37
  22	  40
  22	  52
  22	  57
  22	  85
  22	  87
  22	  88
  22	 106
  22	 112
  23	  49
  23	  52
  23	  58
  23	  61
  23	  67
  23	  69
  23	  73
  23	  99
  24	  26
  24	  33
  24	  61
  24	  71
  24	 103
  24	 107
  24	 113
  25	  30
  25	  36
  25	  77
  26	  36
  26	  67
  26	  76
  26	  79
  26	  97
  26	  99
  27	  51
  27	  53
  27	  65
  27	  67
  27	  79
  27	  88
  27	  99
  27	 105
  28	  29
  28	  32
  28	  36
  28	  39
  28	  41
  28	  57
  28	  58
  28	  67
  28	  69
  28	  72
  28	  86
  28	 111
  28	 112
  29	  30
  29	  33
  29	  52
  29	  54
  29	  61
  29	  65
  29	 104
  29	 106
  29	 110
  30	  35
  30	  39
  30	  44
  30	  45
  30	  66
  30	  88
  30	  91
  30	  94
  30	 115
  30	 117
  31	  36
  31	  55
  31	  78
  31	  82
  31	  85
  31	 103
  31	 112
  31	 113
  32	  38
  32	  57
  32	  88
  32	 107
  32	 116
  33	  34
  33	  40
  33	  56
  33	  57
  33	  68
  33	  69
  33	  75
  33	  80
  33	  81
  33	  89
  33	  91
  33	  98
  33	 110
  33	 119
  34	  35
  34	  38
  34	  40
  34	  47
  34	  54
  34	  55
  34	  79
  34	  87
  34	 110
  35	  74
  35	  75
  35	  79
  35	 103
  35	 105
  35	 106
  35	 112
  35	 113
  36	  54
  36	  57
  36	  65
  36	  68
  36	  69
  36	  71
  36	  80
  36	  89
  36	  97
  36	  99
  36	 115
  37	  46
  37	  59
  37	  67
  37	  84
  37	 105
  38	  42
  38	  59
  38	  60
  38	  61
  38	  68
  38	  87
  38	  98
  38	 100
  39	  53
  39	  63
  39	  65
  39	  74
  39	  96
  39	  99
  39	 103
  39	 111
  39	 115
  39	 117
  40	  68
  40	 107
  40	 115
  40	 119
  41	  46
  41	  66
  41	  79
  41	  82
  41	  89
  41	  98
  42	  51
  42	  64
  42	 109
  42	 118
  43	  66
  43	  71
  43	  74
  43	  79
  43	  89
  43	  91
  43	  93
  43	 103
  43	 105
  44	  66
  44	  70
  44	  74
  44	  76
  44	  80
  44	  93
  44	 100
  44	 105
  45	  48
  45	  68
  45	  85
  45	  91
  45	 104
  45	 108
  45	 115
  46	  47
  46	  77
  46	  79
  46	  83
  46	  84
  46	  92
  46	 113
  47	  72
  47	  78
  47	  79
  47	  91
  47	  95
  48	  84
  49	  67
  49	  71
  49	  72
  49	  81
  49	 106
  49	 107
  50	  54
  50	  57
  50	  66
  50	  73
  50	  79
  50	  86
  50	  90
  51	  54
  51	  56
  51	  92
  51	 115
  52	  64
  52	  66
  52	  70
  52	  74
  52	  97
  52	  98
  52	 109
  52	 110
  52	 111
  52	 113
  53	  67
  53	  77
  53	  90
  53	 112
  54	  59
  54	  67
  54	  70
  54	 103
  54	 111
  54	 113
  54	 117
  55	  71
  55	  81
  55	  98
  55	 102
  55	 103
  56	  58
  56	  80
  56	  85
  56	  90
  56	 106
  56	 116
  57	  66
  57	  68
  57	  98
  57	 100
  57	 114
  58	  61
  58	  64
  58	  68
  58	  93
  58	  99
  58	 110
  59	  60
  59	  61
  59	  91
  59	 103
  59	 106
  59	 116
  60	  72
  60	  74
  60	  75
  60	  78
  60	 106
  60	 117
  61	  63
  61	  68
  61	  69
  61	  82
  61	  86
  61	  93
  61	  95
  61	 107
  61	 111
  62	  93
  62	  98
  62	 118
  62	 119
  63	  77
  63	  81
  63	  83
  63	  85
  63	  86
  63	  87
  63	 102
  63	 109
  63	 111
  63	 114
  64	  76
  64	  79
  64	  97
  64	 102
  65	  80
  65	  86
  65	  95
  65	 102
  65	 111
  65	 114
  66	  69
  66	  92
  66	  93
  66	  97
  66	  98
  66	 109
  67	  69
  67	  83
  67	  89
  67	 106
  68	  87
  68	  97
  68	 112
  68	 116
  68	 117
  69	  79
  69	  96
  69	  97
  69	 100
  69	 113
  70	  95
  70	  97
  70	  98
  70	 108
  70	 111
  71	  79
  71	  87
  71	 108
  71	 110
  71	 115
  72	  77
  72	 118
  72	 119
  73	  84
  73	  93
  73	 101
  74	  91
  74	  92
  74	  98
  74	  99
  74	 105
  74	 109
  75	  85
  75	  98
  75	 116
  76	  77
  76	  86
  76	 102
  76	 112
  76	 118
  77	  82
  77	  93
  77	  95
  77	 112
  78	  91
  78	  92
  78	  97
  78	 105
  78	 108
  79	  82
  79	  92
  79	 113
  79	 114
  79	 116
  80	  98
  80	  99
  80	 103
  80	 108
  80	 115
  80	 118
  81	  88
  81	  92
  81	  99
  81	 111
  81	 112
  81	 118
  82	  93
  82	 101
  82	 119
  83	  88
  83	  96
  83	 119
  84	 108
  84	 109
  85	  99
  85	 101
  85	 103
  85	 105
  85	 115
  85	 118
  86	  87
  86	  91
  86	  99
  86	 103
  86	 105
  86	 108
  86	 114
  86	 115
  87	  96
  87	  97
  87	 102
  87	 113
  88	 115
  89	  97
  89	 104
  89	 106
  90	 101
  90	 113
  90	 116
  91	  97
  91	 100
  91	 115
  92	  94
  92	  96
  92	 110
  92	 116
  93	 116
  93	 119
  94	 110
  94	 111
  96	  98
  96	  99
  96	 113
 100	 102
 101	 112
 102	 107
 102	 119
 103	 104
 104	 105
 105	 115
 105	 116
 106	 107
 109	 114
 110	 116
 111	 117
 116	 119
 117	 118
;
